NAME : eil51-3
COMMENT : 51-city problem (Christofides/Eilon)
TYPE : CTSP
DIMENSION : 51
SALESMEN : 3
EDGE_WEIGHT_TYPE : EUC_2D
NODE_COORD_SECTION
1 42 41
2 5 25
3 10 17
4 20 26
5 17 33
6 13 13
7 21 10
8 5 6
9 7 38
10 12 42
11 8 52
12 61 33
13 46 10
14 56 37
15 58 27
16 59 15
17 62 42
18 52 33
19 51 31
20 48 28
21 39 10
22 37 69
23 52 64
24 62 63
25 31 62
26 5 64
27 17 63
28 63 69
29 27 68
30 43 67
31 57 58
32 40 30
33 49 49
34 37 52
35 52 41
36 31 32
37 58 48
38 38 46
39 36 16
40 25 32
41 45 35
42 32 22
43 21 47
44 42 57
45 30 48
46 30 15
47 30 40
48 25 55
49 16 57
50 27 23
51 32 39
CTSP_SET_SECTION
1 2 3 4 5 6 7 8 9 10 11 -1
2 12 13 14 15 16 17 18 19 20 21 -1
3 22 23 24 25 26 27 28 29 30 31 -1
DEPOT_SECTION
1
-1
EOF
